p cnf 966 2481
51 -699 -700 0
-51 699 0
-51 700 0
52 -51 -701 0
-52 51 0
-52 701 0
53 -702 -4 0
-53 702 0
-53 4 0
54 -53 -6 0
-54 53 0
-54 6 0
55 -703 -704 0
-55 703 0
-55 704 0
56 -705 -706 0
-56 705 0
-56 706 0
57 -56 -8 0
-57 56 0
-57 8 0
58 -707 -55 0
-58 707 0
-58 55 0
59 -708 -9 0
-59 708 0
-59 9 0
60 -59 -709 0
-60 59 0
-60 709 0
61 -710 -58 0
-61 710 0
-61 58 0
62 -711 -712 0
-62 711 0
-62 712 0
63 -62 -713 0
-63 62 0
-63 713 0
64 -714 -61 0
-64 714 0
-64 61 0
65 -715 -716 0
-65 715 0
-65 716 0
66 -65 -717 0
-66 65 0
-66 717 0
67 -718 -64 0
-67 718 0
-67 64 0
68 -17 -16 0
-68 17 0
-68 16 0
69 -68 -18 0
-69 68 0
-69 18 0
70 -719 -67 0
-70 719 0
-70 67 0
71 -720 -19 0
-71 720 0
-71 19 0
72 -71 -21 0
-72 71 0
-72 21 0
73 -721 -70 0
-73 721 0
-73 70 0
74 -722 -723 0
-74 722 0
-74 723 0
75 -74 -24 0
-75 74 0
-75 24 0
76 -724 -73 0
-76 724 0
-76 73 0
77 -26 -25 0
-77 26 0
-77 25 0
78 -77 -725 0
-78 77 0
-78 725 0
79 -726 -76 0
-79 726 0
-79 76 0
80 -28 -15 0
-80 28 0
-80 15 0
81 -80 -29 0
-81 80 0
-81 29 0
82 -727 -79 0
-82 727 0
-82 79 0
83 -31 -30 0
-83 31 0
-83 30 0
84 -83 -32 0
-84 83 0
-84 32 0
85 -728 -82 0
-85 728 0
-85 82 0
86 -34 -729 0
-86 34 0
-86 729 0
87 -86 -6 0
-87 86 0
-87 6 0
88 -730 -85 0
-88 730 0
-88 85 0
89 -28 -709 0
-89 28 0
-89 709 0
90 -89 -725 0
-90 89 0
-90 725 0
91 -731 -88 0
-91 731 0
-91 88 0
92 -35 -732 0
-92 35 0
-92 732 0
93 -92 -733 0
-93 92 0
-93 733 0
94 -734 -91 0
-94 734 0
-94 91 0
95 -735 -20 0
-95 735 0
-95 20 0
96 -95 -37 0
-96 95 0
-96 37 0
97 -736 -94 0
-97 736 0
-97 94 0
98 -717 -709 0
-98 717 0
-98 709 0
99 -98 -38 0
-99 98 0
-99 38 0
100 -737 -97 0
-100 737 0
-100 97 0
101 -735 -23 0
-101 735 0
-101 23 0
102 -101 -738 0
-102 101 0
-102 738 0
103 -739 -100 0
-103 739 0
-103 100 0
104 -740 -741 0
-104 740 0
-104 741 0
105 -104 -2 0
-105 104 0
-105 2 0
106 -742 -103 0
-106 742 0
-106 103 0
107 -743 -700 0
-107 743 0
-107 700 0
108 -107 -699 0
-108 107 0
-108 699 0
109 -744 -106 0
-109 744 0
-109 106 0
110 -745 -5 0
-110 745 0
-110 5 0
111 -110 -42 0
-111 110 0
-111 42 0
112 -746 -109 0
-112 746 0
-112 109 0
113 -747 -20 0
-113 747 0
-113 20 0
114 -113 -32 0
-114 113 0
-114 32 0
115 -748 -112 0
-115 748 0
-115 112 0
116 -35 -4 0
-116 35 0
-116 4 0
117 -116 -749 0
-117 116 0
-117 749 0
118 -750 -115 0
-118 750 0
-118 115 0
119 -43 -751 0
-119 43 0
-119 751 0
120 -119 -8 0
-120 119 0
-120 8 0
121 -752 -118 0
-121 752 0
-121 118 0
122 -44 -733 0
-122 44 0
-122 733 0
123 -122 -753 0
-123 122 0
-123 753 0
124 -754 -121 0
-124 754 0
-124 121 0
125 -755 -37 0
-125 755 0
-125 37 0
126 -125 -6 0
-126 125 0
-126 6 0
127 -756 -124 0
-127 756 0
-127 124 0
128 -729 -21 0
-128 729 0
-128 21 0
129 -128 -37 0
-129 128 0
-129 37 0
130 -757 -127 0
-130 757 0
-130 127 0
131 -43 -732 0
-131 43 0
-131 732 0
132 -131 -701 0
-132 131 0
-132 701 0
133 -758 -130 0
-133 758 0
-133 130 0
134 -759 -33 0
-134 759 0
-134 33 0
135 -134 -713 0
-135 134 0
-135 713 0
136 -760 -133 0
-136 760 0
-136 133 0
137 -708 -706 0
-137 708 0
-137 706 0
138 -137 -717 0
-138 137 0
-138 717 0
139 -761 -136 0
-139 761 0
-139 136 0
140 -44 -13 0
-140 44 0
-140 13 0
141 -140 -39 0
-141 140 0
-141 39 0
142 -762 -139 0
-142 762 0
-142 139 0
143 -42 -732 0
-143 42 0
-143 732 0
144 -143 -763 0
-144 143 0
-144 763 0
145 -764 -142 0
-145 764 0
-145 142 0
146 -31 -765 0
-146 31 0
-146 765 0
147 -146 -713 0
-147 146 0
-147 713 0
148 -766 -145 0
-148 766 0
-148 145 0
149 -749 -765 0
-149 749 0
-149 765 0
150 -149 -38 0
-150 149 0
-150 38 0
151 -767 -148 0
-151 767 0
-151 148 0
152 -47 -700 0
-152 47 0
-152 700 0
153 -152 -12 0
-153 152 0
-153 12 0
154 -768 -151 0
-154 768 0
-154 151 0
155 -10 -9 0
-155 10 0
-155 9 0
156 -155 -39 0
-156 155 0
-156 39 0
157 -769 -154 0
-157 769 0
-157 154 0
158 -770 -709 0
-158 770 0
-158 709 0
159 -158 -699 0
-159 158 0
-159 699 0
160 -771 -157 0
-160 771 0
-160 157 0
161 -25 -9 0
-161 25 0
-161 9 0
162 -161 -39 0
-162 161 0
-162 39 0
163 -772 -160 0
-163 772 0
-163 160 0
164 -42 -5 0
-164 42 0
-164 5 0
165 -164 -32 0
-165 164 0
-165 32 0
166 -773 -163 0
-166 773 0
-166 163 0
167 -19 -701 0
-167 19 0
-167 701 0
168 -167 -713 0
-168 167 0
-168 713 0
169 -774 -166 0
-169 774 0
-169 166 0
170 -775 -8 0
-170 775 0
-170 8 0
171 -170 -29 0
-171 170 0
-171 29 0
172 -776 -169 0
-172 776 0
-172 169 0
173 -733 -699 0
-173 733 0
-173 699 0
174 -173 -713 0
-174 173 0
-174 713 0
175 -777 -172 0
-175 777 0
-175 172 0
176 -31 -778 0
-176 31 0
-176 778 0
177 -176 -38 0
-177 176 0
-177 38 0
178 -779 -175 0
-178 779 0
-178 175 0
179 -19 -702 0
-179 19 0
-179 702 0
180 -179 -29 0
-180 179 0
-180 29 0
181 -780 -178 0
-181 780 0
-181 178 0
182 -732 -25 0
-182 732 0
-182 25 0
183 -182 -781 0
-183 182 0
-183 781 0
184 -782 -181 0
-184 782 0
-184 181 0
185 -783 -22 0
-185 783 0
-185 22 0
186 -185 -784 0
-186 185 0
-186 784 0
187 -785 -184 0
-187 785 0
-187 184 0
188 -16 -700 0
-188 16 0
-188 700 0
189 -188 -46 0
-189 188 0
-189 46 0
190 -786 -187 0
-190 786 0
-190 187 0
191 -740 -712 0
-191 740 0
-191 712 0
192 -191 -705 0
-192 191 0
-192 705 0
193 -787 -190 0
-193 787 0
-193 190 0
194 -40 -5 0
-194 40 0
-194 5 0
195 -194 -747 0
-195 194 0
-195 747 0
196 -788 -193 0
-196 788 0
-196 193 0
197 -49 -48 0
-197 49 0
-197 48 0
198 -197 -18 0
-198 197 0
-198 18 0
199 -789 -196 0
-199 789 0
-199 196 0
200 -790 -729 0
-200 790 0
-200 729 0
201 -200 -47 0
-201 200 0
-201 47 0
202 -791 -199 0
-202 791 0
-202 199 0
203 -13 -711 0
-203 13 0
-203 711 0
204 -203 -755 0
-204 203 0
-204 755 0
205 -792 -202 0
-205 792 0
-205 202 0
206 -793 -2 0
-206 793 0
-206 2 0
207 -206 -37 0
-207 206 0
-207 37 0
208 -794 -205 0
-208 794 0
-208 205 0
209 -795 -26 0
-209 795 0
-209 26 0
210 -209 -781 0
-210 209 0
-210 781 0
211 -796 -208 0
-211 796 0
-211 208 0
212 -797 -763 0
-212 797 0
-212 763 0
213 -212 -3 0
-213 212 0
-213 3 0
214 -798 -211 0
-214 798 0
-214 211 0
215 -50 -753 0
-215 50 0
-215 753 0
216 -215 -749 0
-216 215 0
-216 749 0
217 -799 -214 0
-217 799 0
-217 214 0
218 -40 -2 0
-218 40 0
-218 2 0
219 -218 -759 0
-219 218 0
-219 759 0
220 -800 -217 0
-220 800 0
-220 217 0
221 -35 -702 0
-221 35 0
-221 702 0
222 -221 -2 0
-222 221 0
-222 2 0
223 -801 -220 0
-223 801 0
-223 220 0
224 -729 -22 0
-224 729 0
-224 22 0
225 -224 -720 0
-225 224 0
-225 720 0
226 -802 -223 0
-226 802 0
-226 223 0
227 -790 -705 0
-227 790 0
-227 705 0
228 -227 -37 0
-228 227 0
-228 37 0
229 -803 -226 0
-229 803 0
-229 226 0
230 -709 -700 0
-230 709 0
-230 700 0
231 -230 -759 0
-231 230 0
-231 759 0
232 -804 -229 0
-232 804 0
-232 229 0
233 -740 -722 0
-233 740 0
-233 722 0
234 -233 -48 0
-234 233 0
-234 48 0
235 -805 -232 0
-235 805 0
-235 232 0
236 -797 -806 0
-236 797 0
-236 806 0
237 -236 -747 0
-237 236 0
-237 747 0
238 -807 -235 0
-238 807 0
-238 235 0
239 -41 -14 0
-239 41 0
-239 14 0
240 -239 -2 0
-240 239 0
-240 2 0
241 -808 -238 0
-241 808 0
-241 238 0
242 -49 -26 0
-242 49 0
-242 26 0
243 -242 -37 0
-243 242 0
-243 37 0
244 -809 -241 0
-244 809 0
-244 241 0
245 -16 -716 0
-245 16 0
-245 716 0
246 -245 -775 0
-246 245 0
-246 775 0
247 -810 -244 0
-247 810 0
-247 244 0
248 -811 -723 0
-248 811 0
-248 723 0
249 -248 -812 0
-249 248 0
-249 812 0
250 -813 -247 0
-250 813 0
-250 247 0
251 -784 -5 0
-251 784 0
-251 5 0
252 -251 -814 0
-252 251 0
-252 814 0
253 -815 -250 0
-253 815 0
-253 250 0
254 -735 -1 0
-254 735 0
-254 1 0
255 -254 -18 0
-255 254 0
-255 18 0
256 -816 -253 0
-256 816 0
-256 253 0
257 -42 -812 0
-257 42 0
-257 812 0
258 -257 -18 0
-258 257 0
-258 18 0
259 -817 -256 0
-259 817 0
-259 256 0
260 -818 -1 0
-260 818 0
-260 1 0
261 -260 -778 0
-261 260 0
-261 778 0
262 -819 -259 0
-262 819 0
-262 259 0
263 -35 -30 0
-263 35 0
-263 30 0
264 -263 -763 0
-264 263 0
-264 763 0
265 -820 -262 0
-265 820 0
-265 262 0
266 -11 -7 0
-266 11 0
-266 7 0
267 -266 -745 0
-267 266 0
-267 745 0
268 -821 -265 0
-268 821 0
-268 265 0
269 -21 -709 0
-269 21 0
-269 709 0
270 -269 -818 0
-270 269 0
-270 818 0
271 -822 -268 0
-271 822 0
-271 268 0
272 -765 -1 0
-272 765 0
-272 1 0
273 -272 -699 0
-273 272 0
-273 699 0
274 -823 -271 0
-274 823 0
-274 271 0
275 -741 -778 0
-275 741 0
-275 778 0
276 -275 -725 0
-276 275 0
-276 725 0
277 -824 -274 0
-277 824 0
-277 274 0
278 -818 -715 0
-278 818 0
-278 715 0
279 -278 -3 0
-279 278 0
-279 3 0
280 -825 -277 0
-280 825 0
-280 277 0
281 -20 -9 0
-281 20 0
-281 9 0
282 -281 -21 0
-282 281 0
-282 21 0
283 -826 -280 0
-283 826 0
-283 280 0
284 -47 -13 0
-284 47 0
-284 13 0
285 -284 -20 0
-285 284 0
-285 20 0
286 -827 -283 0
-286 827 0
-286 283 0
287 -723 -21 0
-287 723 0
-287 21 0
288 -287 -759 0
-288 287 0
-288 759 0
289 -828 -286 0
-289 828 0
-289 286 0
290 -50 -5 0
-290 50 0
-290 5 0
291 -290 -46 0
-291 290 0
-291 46 0
292 -829 -289 0
-292 829 0
-292 289 0
293 -25 -21 0
-293 25 0
-293 21 0
294 -293 -37 0
-294 293 0
-294 37 0
295 -830 -292 0
-295 830 0
-295 292 0
296 -33 -702 0
-296 33 0
-296 702 0
297 -296 -29 0
-297 296 0
-297 29 0
298 -831 -295 0
-298 831 0
-298 295 0
299 -22 -709 0
-299 22 0
-299 709 0
300 -299 -702 0
-300 299 0
-300 702 0
301 -832 -298 0
-301 832 0
-301 298 0
302 -77 -38 0
-302 77 0
-302 38 0
303 -833 -301 0
-303 833 0
-303 301 0
304 -720 -705 0
-304 720 0
-304 705 0
305 -304 -797 0
-305 304 0
-305 797 0
306 -834 -303 0
-306 834 0
-306 303 0
307 -23 -702 0
-307 23 0
-307 702 0
308 -307 -781 0
-308 307 0
-308 781 0
309 -835 -306 0
-309 835 0
-309 306 0
310 -751 -13 0
-310 751 0
-310 13 0
311 -310 -38 0
-311 310 0
-311 38 0
312 -836 -309 0
-312 836 0
-312 309 0
313 -740 -753 0
-313 740 0
-313 753 0
314 -313 -6 0
-314 313 0
-314 6 0
315 -837 -312 0
-315 837 0
-315 312 0
316 -49 -709 0
-316 49 0
-316 709 0
317 -316 -29 0
-317 316 0
-317 29 0
318 -838 -315 0
-318 838 0
-318 315 0
319 -783 -35 0
-319 783 0
-319 35 0
320 -319 -20 0
-320 319 0
-320 20 0
321 -839 -318 0
-321 839 0
-321 318 0
322 -47 -23 0
-322 47 0
-322 23 0
323 -322 -18 0
-323 322 0
-323 18 0
324 -840 -321 0
-324 840 0
-324 321 0
325 -23 -765 0
-325 23 0
-325 765 0
326 -325 -42 0
-326 325 0
-326 42 0
327 -841 -324 0
-327 841 0
-327 324 0
328 -716 -709 0
-328 716 0
-328 709 0
329 -328 -751 0
-329 328 0
-329 751 0
330 -842 -327 0
-330 842 0
-330 327 0
331 -738 -7 0
-331 738 0
-331 7 0
332 -331 -8 0
-332 331 0
-332 8 0
333 -843 -330 0
-333 843 0
-333 330 0
334 -814 -22 0
-334 814 0
-334 22 0
335 -334 -701 0
-335 334 0
-335 701 0
336 -844 -333 0
-336 844 0
-336 333 0
337 -793 -3 0
-337 793 0
-337 3 0
338 -337 -749 0
-338 337 0
-338 749 0
339 -845 -336 0
-339 845 0
-339 336 0
340 -705 -1 0
-340 705 0
-340 1 0
341 -340 -25 0
-341 340 0
-341 25 0
342 -846 -339 0
-342 846 0
-342 339 0
343 -22 -7 0
-343 22 0
-343 7 0
344 -343 -5 0
-344 343 0
-344 5 0
345 -847 -342 0
-345 847 0
-345 342 0
346 -784 -716 0
-346 784 0
-346 716 0
347 -346 -41 0
-347 346 0
-347 41 0
348 -848 -345 0
-348 848 0
-348 345 0
349 -709 -733 0
-349 709 0
-349 733 0
350 -349 -17 0
-350 349 0
-350 17 0
351 -849 -348 0
-351 849 0
-351 348 0
352 -43 -15 0
-352 43 0
-352 15 0
353 -352 -3 0
-353 352 0
-353 3 0
354 -850 -351 0
-354 850 0
-354 351 0
355 -765 -4 0
-355 765 0
-355 4 0
356 -355 -20 0
-356 355 0
-356 20 0
357 -851 -354 0
-357 851 0
-357 354 0
358 -784 -797 0
-358 784 0
-358 797 0
359 -358 -21 0
-359 358 0
-359 21 0
360 -852 -357 0
-360 852 0
-360 357 0
361 -50 -765 0
-361 50 0
-361 765 0
362 -361 -27 0
-362 361 0
-362 27 0
363 -853 -360 0
-363 853 0
-363 360 0
364 -33 -9 0
-364 33 0
-364 9 0
365 -364 -2 0
-365 364 0
-365 2 0
366 -854 -363 0
-366 854 0
-366 363 0
367 -715 -2 0
-367 715 0
-367 2 0
368 -367 -812 0
-368 367 0
-368 812 0
369 -855 -366 0
-369 855 0
-369 366 0
370 -793 -709 0
-370 793 0
-370 709 0
371 -370 -32 0
-371 370 0
-371 32 0
372 -856 -369 0
-372 856 0
-372 369 0
373 -29 -715 0
-373 29 0
-373 715 0
374 -373 -755 0
-374 373 0
-374 755 0
375 -857 -372 0
-375 857 0
-375 372 0
376 -765 -9 0
-376 765 0
-376 9 0
377 -376 -27 0
-377 376 0
-377 27 0
378 -858 -375 0
-378 858 0
-378 375 0
379 -743 -751 0
-379 743 0
-379 751 0
380 -379 -701 0
-380 379 0
-380 701 0
381 -859 -378 0
-381 859 0
-381 378 0
382 -712 -4 0
-382 712 0
-382 4 0
383 -382 -10 0
-383 382 0
-383 10 0
384 -860 -381 0
-384 860 0
-384 381 0
385 -20 -19 0
-385 20 0
-385 19 0
386 -385 -747 0
-386 385 0
-386 747 0
387 -861 -384 0
-387 861 0
-387 384 0
388 -806 -741 0
-388 806 0
-388 741 0
389 -388 -18 0
-389 388 0
-389 18 0
390 -862 -387 0
-390 862 0
-390 387 0
391 -50 -745 0
-391 50 0
-391 745 0
392 -391 -743 0
-392 391 0
-392 743 0
393 -863 -390 0
-393 863 0
-393 390 0
394 -34 -23 0
-394 34 0
-394 23 0
395 -394 -49 0
-395 394 0
-395 49 0
396 -864 -393 0
-396 864 0
-396 393 0
397 -732 -715 0
-397 732 0
-397 715 0
398 -397 -702 0
-398 397 0
-398 702 0
399 -865 -396 0
-399 865 0
-399 396 0
400 -778 -711 0
-400 778 0
-400 711 0
401 -400 -812 0
-401 400 0
-401 812 0
402 -866 -399 0
-402 866 0
-402 399 0
403 -40 -35 0
-403 40 0
-403 35 0
404 -403 -806 0
-404 403 0
-404 806 0
405 -867 -402 0
-405 867 0
-405 402 0
406 -20 -716 0
-406 20 0
-406 716 0
407 -406 -36 0
-407 406 0
-407 36 0
408 -868 -405 0
-408 868 0
-408 405 0
409 -13 -709 0
-409 13 0
-409 709 0
410 -409 -41 0
-410 409 0
-410 41 0
411 -869 -408 0
-411 869 0
-411 408 0
412 -715 -1 0
-412 715 0
-412 1 0
413 -412 -775 0
-413 412 0
-413 775 0
414 -870 -411 0
-414 870 0
-414 411 0
415 -812 -22 0
-415 812 0
-415 22 0
416 -415 -753 0
-416 415 0
-416 753 0
417 -871 -414 0
-417 871 0
-417 414 0
418 -790 -818 0
-418 790 0
-418 818 0
419 -418 -18 0
-419 418 0
-419 18 0
420 -872 -417 0
-420 872 0
-420 417 0
421 -784 -42 0
-421 784 0
-421 42 0
422 -421 -8 0
-422 421 0
-422 8 0
423 -873 -420 0
-423 873 0
-423 420 0
424 -711 -10 0
-424 711 0
-424 10 0
425 -424 -812 0
-425 424 0
-425 812 0
426 -874 -423 0
-426 874 0
-426 423 0
427 -729 -711 0
-427 729 0
-427 711 0
428 -427 -31 0
-428 427 0
-428 31 0
429 -875 -426 0
-429 875 0
-429 426 0
430 -783 -716 0
-430 783 0
-430 716 0
431 -430 -29 0
-431 430 0
-431 29 0
432 -876 -429 0
-432 876 0
-432 429 0
433 -20 -765 0
-433 20 0
-433 765 0
434 -433 -733 0
-434 433 0
-434 733 0
435 -877 -432 0
-435 877 0
-435 432 0
436 -36 -720 0
-436 36 0
-436 720 0
437 -436 -17 0
-437 436 0
-437 17 0
438 -878 -435 0
-438 878 0
-438 435 0
439 -778 -20 0
-439 778 0
-439 20 0
440 -439 -759 0
-440 439 0
-440 759 0
441 -879 -438 0
-441 879 0
-441 438 0
442 -818 -11 0
-442 818 0
-442 11 0
443 -442 -32 0
-443 442 0
-443 32 0
444 -880 -441 0
-444 880 0
-444 441 0
445 -20 -770 0
-445 20 0
-445 770 0
446 -445 -18 0
-446 445 0
-446 18 0
447 -881 -444 0
-447 881 0
-447 444 0
448 -15 -712 0
-448 15 0
-448 712 0
449 -448 -24 0
-449 448 0
-449 24 0
450 -882 -447 0
-450 882 0
-450 447 0
451 -751 -10 0
-451 751 0
-451 10 0
452 -451 -715 0
-452 451 0
-452 715 0
453 -883 -450 0
-453 883 0
-453 450 0
454 -725 -751 0
-454 725 0
-454 751 0
455 -454 -749 0
-455 454 0
-455 749 0
456 -884 -453 0
-456 884 0
-456 453 0
457 -13 -701 0
-457 13 0
-457 701 0
458 -457 -45 0
-458 457 0
-458 45 0
459 -885 -456 0
-459 885 0
-459 456 0
460 -19 -709 0
-460 19 0
-460 709 0
461 -460 -24 0
-461 460 0
-461 24 0
462 -886 -459 0
-462 886 0
-462 459 0
463 -43 -1 0
-463 43 0
-463 1 0
464 -463 -32 0
-464 463 0
-464 32 0
465 -887 -462 0
-465 887 0
-465 462 0
466 -44 -25 0
-466 44 0
-466 25 0
467 -466 -749 0
-467 466 0
-467 749 0
468 -888 -465 0
-468 888 0
-468 465 0
469 -42 -15 0
-469 42 0
-469 15 0
470 -469 -713 0
-470 469 0
-470 713 0
471 -889 -468 0
-471 889 0
-471 468 0
472 -729 -13 0
-472 729 0
-472 13 0
473 -472 -37 0
-473 472 0
-473 37 0
474 -890 -471 0
-474 890 0
-474 471 0
475 -10 -733 0
-475 10 0
-475 733 0
476 -475 -32 0
-476 475 0
-476 32 0
477 -891 -474 0
-477 891 0
-477 474 0
478 -783 -13 0
-478 783 0
-478 13 0
479 -478 -700 0
-479 478 0
-479 700 0
480 -892 -477 0
-480 892 0
-480 477 0
481 -717 -716 0
-481 717 0
-481 716 0
482 -481 -18 0
-482 481 0
-482 18 0
483 -893 -480 0
-483 893 0
-483 480 0
484 -27 -702 0
-484 27 0
-484 702 0
485 -484 -6 0
-485 484 0
-485 6 0
486 -894 -483 0
-486 894 0
-486 483 0
487 -723 -720 0
-487 723 0
-487 720 0
488 -487 -2 0
-488 487 0
-488 2 0
489 -895 -486 0
-489 895 0
-489 486 0
490 -40 -715 0
-490 40 0
-490 715 0
491 -490 -699 0
-491 490 0
-491 699 0
492 -896 -489 0
-492 896 0
-492 489 0
493 -28 -700 0
-493 28 0
-493 700 0
494 -493 -713 0
-494 493 0
-494 713 0
495 -897 -492 0
-495 897 0
-495 492 0
496 -40 -4 0
-496 40 0
-496 4 0
497 -496 -729 0
-497 496 0
-497 729 0
498 -898 -495 0
-498 898 0
-498 495 0
499 -709 -706 0
-499 709 0
-499 706 0
500 -499 -806 0
-500 499 0
-500 806 0
501 -899 -498 0
-501 899 0
-501 498 0
502 -39 -36 0
-502 39 0
-502 36 0
503 -502 -27 0
-503 502 0
-503 27 0
504 -900 -501 0
-504 900 0
-504 501 0
505 -43 -711 0
-505 43 0
-505 711 0
506 -505 -3 0
-506 505 0
-506 3 0
507 -901 -504 0
-507 901 0
-507 504 0
508 -716 -12 0
-508 716 0
-508 12 0
509 -508 -15 0
-509 508 0
-509 15 0
510 -902 -507 0
-510 902 0
-510 507 0
511 -30 -778 0
-511 30 0
-511 778 0
512 -511 -814 0
-512 511 0
-512 814 0
513 -903 -510 0
-513 903 0
-513 510 0
514 -784 -733 0
-514 784 0
-514 733 0
515 -514 -32 0
-515 514 0
-515 32 0
516 -904 -513 0
-516 904 0
-516 513 0
517 -44 -717 0
-517 44 0
-517 717 0
518 -517 -5 0
-518 517 0
-518 5 0
519 -905 -516 0
-519 905 0
-519 516 0
520 -790 -10 0
-520 790 0
-520 10 0
521 -520 -17 0
-521 520 0
-521 17 0
522 -906 -519 0
-522 906 0
-522 519 0
523 -47 -733 0
-523 47 0
-523 733 0
524 -523 -753 0
-524 523 0
-524 753 0
525 -907 -522 0
-525 907 0
-525 522 0
526 -743 -812 0
-526 743 0
-526 812 0
527 -526 -713 0
-527 526 0
-527 713 0
528 -908 -525 0
-528 908 0
-528 525 0
529 -47 -702 0
-529 47 0
-529 702 0
530 -529 -806 0
-530 529 0
-530 806 0
531 -909 -528 0
-531 909 0
-531 528 0
532 -818 -25 0
-532 818 0
-532 25 0
533 -532 -28 0
-533 532 0
-533 28 0
534 -910 -531 0
-534 910 0
-534 531 0
535 -797 -2 0
-535 797 0
-535 2 0
536 -535 -8 0
-536 535 0
-536 8 0
537 -911 -534 0
-537 911 0
-537 534 0
538 -741 -13 0
-538 741 0
-538 13 0
539 -538 -793 0
-539 538 0
-539 793 0
540 -912 -537 0
-540 912 0
-540 537 0
541 -224 -699 0
-541 224 0
-541 699 0
542 -913 -540 0
-542 913 0
-542 540 0
543 -709 -699 0
-543 709 0
-543 699 0
544 -543 -29 0
-544 543 0
-544 29 0
545 -914 -542 0
-545 914 0
-545 542 0
546 -47 -735 0
-546 47 0
-546 735 0
547 -546 -46 0
-547 546 0
-547 46 0
548 -915 -545 0
-548 915 0
-548 545 0
549 -770 -702 0
-549 770 0
-549 702 0
550 -549 -24 0
-550 549 0
-550 24 0
551 -916 -548 0
-551 916 0
-551 548 0
552 -46 -778 0
-552 46 0
-552 778 0
553 -552 -701 0
-553 552 0
-553 701 0
554 -917 -551 0
-554 917 0
-554 551 0
555 -30 -14 0
-555 30 0
-555 14 0
556 -555 -5 0
-556 555 0
-556 5 0
557 -918 -554 0
-557 918 0
-557 554 0
558 -729 -700 0
-558 729 0
-558 700 0
559 -558 -743 0
-559 558 0
-559 743 0
560 -919 -557 0
-560 919 0
-560 557 0
561 -49 -729 0
-561 49 0
-561 729 0
562 -561 -32 0
-562 561 0
-562 32 0
563 -920 -560 0
-563 920 0
-563 560 0
564 -50 -39 0
-564 50 0
-564 39 0
565 -564 -753 0
-565 564 0
-565 753 0
566 -921 -563 0
-566 921 0
-566 563 0
567 -31 -706 0
-567 31 0
-567 706 0
568 -567 -45 0
-568 567 0
-568 45 0
569 -922 -566 0
-569 922 0
-569 566 0
570 -811 -4 0
-570 811 0
-570 4 0
571 -570 -715 0
-571 570 0
-571 715 0
572 -923 -569 0
-572 923 0
-572 569 0
573 -749 -753 0
-573 749 0
-573 753 0
574 -573 -713 0
-574 573 0
-574 713 0
575 -924 -572 0
-575 924 0
-575 572 0
576 -30 -10 0
-576 30 0
-576 10 0
577 -576 -702 0
-577 576 0
-577 702 0
578 -925 -575 0
-578 925 0
-578 575 0
579 -751 -711 0
-579 751 0
-579 711 0
580 -579 -32 0
-580 579 0
-580 32 0
581 -926 -578 0
-581 926 0
-581 578 0
582 -40 -708 0
-582 40 0
-582 708 0
583 -582 -732 0
-583 582 0
-583 732 0
584 -927 -581 0
-584 927 0
-584 581 0
585 -48 -15 0
-585 48 0
-585 15 0
586 -585 -812 0
-586 585 0
-586 812 0
587 -928 -584 0
-587 928 0
-587 584 0
588 -36 -22 0
-588 36 0
-588 22 0
589 -588 -751 0
-589 588 0
-589 751 0
590 -929 -587 0
-590 929 0
-590 587 0
591 -35 -33 0
-591 35 0
-591 33 0
592 -591 -2 0
-592 591 0
-592 2 0
593 -930 -590 0
-593 930 0
-593 590 0
594 -712 -699 0
-594 712 0
-594 699 0
595 -594 -806 0
-595 594 0
-595 806 0
596 -931 -593 0
-596 931 0
-596 593 0
597 -48 -720 0
-597 48 0
-597 720 0
598 -597 -15 0
-598 597 0
-598 15 0
599 -932 -596 0
-599 932 0
-599 596 0
600 -49 -711 0
-600 49 0
-600 711 0
601 -600 -27 0
-601 600 0
-601 27 0
602 -933 -599 0
-602 933 0
-602 599 0
603 -36 -811 0
-603 36 0
-603 811 0
604 -603 -763 0
-604 603 0
-604 763 0
605 -934 -602 0
-605 934 0
-605 602 0
606 -738 -700 0
-606 738 0
-606 700 0
607 -606 -699 0
-607 606 0
-607 699 0
608 -935 -605 0
-608 935 0
-608 605 0
609 -39 -712 0
-609 39 0
-609 712 0
610 -609 -701 0
-610 609 0
-610 701 0
611 -936 -608 0
-611 936 0
-611 608 0
612 -811 -733 0
-612 811 0
-612 733 0
613 -612 -29 0
-613 612 0
-613 29 0
614 -937 -611 0
-614 937 0
-614 611 0
615 -797 -7 0
-615 797 0
-615 7 0
616 -615 -717 0
-616 615 0
-616 717 0
617 -938 -614 0
-617 938 0
-617 614 0
618 -472 -42 0
-618 472 0
-618 42 0
619 -939 -617 0
-619 939 0
-619 617 0
620 -790 -733 0
-620 790 0
-620 733 0
621 -620 -18 0
-621 620 0
-621 18 0
622 -940 -619 0
-622 940 0
-622 619 0
623 -735 -705 0
-623 735 0
-623 705 0
624 -623 -21 0
-624 623 0
-624 21 0
625 -941 -622 0
-625 941 0
-625 622 0
626 -20 -699 0
-626 20 0
-626 699 0
627 -626 -8 0
-627 626 0
-627 8 0
628 -942 -625 0
-628 942 0
-628 625 0
629 -790 -708 0
-629 790 0
-629 708 0
630 -629 -795 0
-630 629 0
-630 795 0
631 -943 -628 0
-631 943 0
-631 628 0
632 -12 -10 0
-632 12 0
-632 10 0
633 -632 -17 0
-633 632 0
-633 17 0
634 -944 -631 0
-634 944 0
-634 631 0
635 -182 -15 0
-635 182 0
-635 15 0
636 -945 -634 0
-636 945 0
-636 634 0
637 -702 -701 0
-637 702 0
-637 701 0
638 -637 -6 0
-638 637 0
-638 6 0
639 -946 -636 0
-639 946 0
-639 636 0
640 -793 -8 0
-640 793 0
-640 8 0
641 -640 -27 0
-641 640 0
-641 27 0
642 -947 -639 0
-642 947 0
-642 639 0
643 -48 -765 0
-643 48 0
-643 765 0
644 -643 -781 0
-644 643 0
-644 781 0
645 -948 -642 0
-645 948 0
-645 642 0
646 -43 -738 0
-646 43 0
-646 738 0
647 -646 -806 0
-647 646 0
-647 806 0
648 -949 -645 0
-648 949 0
-648 645 0
649 -25 -7 0
-649 25 0
-649 7 0
650 -649 -753 0
-650 649 0
-650 753 0
651 -950 -648 0
-651 950 0
-651 648 0
652 -36 -765 0
-652 36 0
-652 765 0
653 -652 -24 0
-653 652 0
-653 24 0
654 -951 -651 0
-654 951 0
-654 651 0
655 -790 -745 0
-655 790 0
-655 745 0
656 -655 -6 0
-656 655 0
-656 6 0
657 -952 -654 0
-657 952 0
-657 654 0
658 -790 -751 0
-658 790 0
-658 751 0
659 -658 -37 0
-659 658 0
-659 37 0
660 -953 -657 0
-660 953 0
-660 657 0
661 -41 -11 0
-661 41 0
-661 11 0
662 -661 -31 0
-662 661 0
-662 31 0
663 -954 -660 0
-663 954 0
-663 660 0
664 -741 -20 0
-664 741 0
-664 20 0
665 -664 -699 0
-665 664 0
-665 699 0
666 -955 -663 0
-666 955 0
-666 663 0
667 -732 -751 0
-667 732 0
-667 751 0
668 -667 -743 0
-668 667 0
-668 743 0
669 -956 -666 0
-669 956 0
-669 666 0
670 -34 -12 0
-670 34 0
-670 12 0
671 -670 -755 0
-671 670 0
-671 755 0
672 -957 -669 0
-672 957 0
-672 669 0
673 -743 -36 0
-673 743 0
-673 36 0
674 -673 -24 0
-674 673 0
-674 24 0
675 -958 -672 0
-675 958 0
-675 672 0
676 -40 -7 0
-676 40 0
-676 7 0
677 -676 -42 0
-677 676 0
-677 42 0
678 -959 -675 0
-678 959 0
-678 675 0
679 -783 -34 0
-679 783 0
-679 34 0
680 -679 -21 0
-680 679 0
-680 21 0
681 -960 -678 0
-681 960 0
-681 678 0
682 -14 -7 0
-682 14 0
-682 7 0
683 -682 -763 0
-683 682 0
-683 763 0
684 -961 -681 0
-684 961 0
-684 681 0
685 -36 -21 0
-685 36 0
-685 21 0
686 -685 -38 0
-686 685 0
-686 38 0
687 -962 -684 0
-687 962 0
-687 684 0
688 -706 -700 0
-688 706 0
-688 700 0
689 -688 -811 0
-689 688 0
-689 811 0
690 -963 -687 0
-690 963 0
-690 687 0
691 -783 -709 0
-691 783 0
-691 709 0
692 -691 -711 0
-692 691 0
-692 711 0
693 -964 -690 0
-693 964 0
-693 690 0
694 -89 -717 0
-694 89 0
-694 717 0
695 -965 -693 0
-695 965 0
-695 693 0
696 -35 -1 0
-696 35 0
-696 1 0
697 -696 -711 0
-697 696 0
-697 711 0
698 -966 -695 0
-698 966 0
-698 695 0
-699 -2 0
699 2 0
-700 -1 0
700 1 0
-701 -3 0
701 3 0
-702 -5 0
702 5 0
-703 -54 0
703 54 0
-704 -52 0
704 52 0
-705 -7 0
705 7 0
-706 -4 0
706 4 0
-707 -57 0
707 57 0
-708 -10 0
708 10 0
-709 -11 0
709 11 0
-710 -60 0
710 60 0
-711 -12 0
711 12 0
-712 -9 0
712 9 0
-713 -6 0
713 6 0
-714 -63 0
714 63 0
-715 -14 0
715 14 0
-716 -13 0
716 13 0
-717 -15 0
717 15 0
-718 -66 0
718 66 0
-719 -69 0
719 69 0
-720 -20 0
720 20 0
-721 -72 0
721 72 0
-722 -23 0
722 23 0
-723 -22 0
723 22 0
-724 -75 0
724 75 0
-725 -27 0
725 27 0
-726 -78 0
726 78 0
-727 -81 0
727 81 0
-728 -84 0
728 84 0
-729 -33 0
729 33 0
-730 -87 0
730 87 0
-731 -90 0
731 90 0
-732 -34 0
732 34 0
-733 -8 0
733 8 0
-734 -93 0
734 93 0
-735 -36 0
735 36 0
-736 -96 0
736 96 0
-737 -99 0
737 99 0
-738 -39 0
738 39 0
-739 -102 0
739 102 0
-740 -40 0
740 40 0
-741 -35 0
741 35 0
-742 -105 0
742 105 0
-743 -41 0
743 41 0
-744 -108 0
744 108 0
-745 -21 0
745 21 0
-746 -111 0
746 111 0
-747 -31 0
747 31 0
-748 -114 0
748 114 0
-749 -29 0
749 29 0
-750 -117 0
750 117 0
-751 -25 0
751 25 0
-752 -120 0
752 120 0
-753 -17 0
753 17 0
-754 -123 0
754 123 0
-755 -45 0
755 45 0
-756 -126 0
756 126 0
-757 -129 0
757 129 0
-758 -132 0
758 132 0
-759 -46 0
759 46 0
-760 -135 0
760 135 0
-761 -138 0
761 138 0
-762 -141 0
762 141 0
-763 -37 0
763 37 0
-764 -144 0
764 144 0
-765 -16 0
765 16 0
-766 -147 0
766 147 0
-767 -150 0
767 150 0
-768 -153 0
768 153 0
-769 -156 0
769 156 0
-770 -19 0
770 19 0
-771 -159 0
771 159 0
-772 -162 0
772 162 0
-773 -165 0
773 165 0
-774 -168 0
774 168 0
-775 -18 0
775 18 0
-776 -171 0
776 171 0
-777 -174 0
777 174 0
-778 -28 0
778 28 0
-779 -177 0
779 177 0
-780 -180 0
780 180 0
-781 -38 0
781 38 0
-782 -183 0
782 183 0
-783 -47 0
783 47 0
-784 -48 0
784 48 0
-785 -186 0
785 186 0
-786 -189 0
786 189 0
-787 -192 0
787 192 0
-788 -195 0
788 195 0
-789 -198 0
789 198 0
-790 -43 0
790 43 0
-791 -201 0
791 201 0
-792 -204 0
792 204 0
-793 -50 0
793 50 0
-794 -207 0
794 207 0
-795 -49 0
795 49 0
-796 -210 0
796 210 0
-797 -44 0
797 44 0
-798 -213 0
798 213 0
-799 -216 0
799 216 0
-800 -219 0
800 219 0
-801 -222 0
801 222 0
-802 -225 0
802 225 0
-803 -228 0
803 228 0
-804 -231 0
804 231 0
-805 -234 0
805 234 0
-806 -42 0
806 42 0
-807 -237 0
807 237 0
-808 -240 0
808 240 0
-809 -243 0
809 243 0
-810 -246 0
810 246 0
-811 -26 0
811 26 0
-812 -24 0
812 24 0
-813 -249 0
813 249 0
-814 -32 0
814 32 0
-815 -252 0
815 252 0
-816 -255 0
816 255 0
-817 -258 0
817 258 0
-818 -30 0
818 30 0
-819 -261 0
819 261 0
-820 -264 0
820 264 0
-821 -267 0
821 267 0
-822 -270 0
822 270 0
-823 -273 0
823 273 0
-824 -276 0
824 276 0
-825 -279 0
825 279 0
-826 -282 0
826 282 0
-827 -285 0
827 285 0
-828 -288 0
828 288 0
-829 -291 0
829 291 0
-830 -294 0
830 294 0
-831 -297 0
831 297 0
-832 -300 0
832 300 0
-833 -302 0
833 302 0
-834 -305 0
834 305 0
-835 -308 0
835 308 0
-836 -311 0
836 311 0
-837 -314 0
837 314 0
-838 -317 0
838 317 0
-839 -320 0
839 320 0
-840 -323 0
840 323 0
-841 -326 0
841 326 0
-842 -329 0
842 329 0
-843 -332 0
843 332 0
-844 -335 0
844 335 0
-845 -338 0
845 338 0
-846 -341 0
846 341 0
-847 -344 0
847 344 0
-848 -347 0
848 347 0
-849 -350 0
849 350 0
-850 -353 0
850 353 0
-851 -356 0
851 356 0
-852 -359 0
852 359 0
-853 -362 0
853 362 0
-854 -365 0
854 365 0
-855 -368 0
855 368 0
-856 -371 0
856 371 0
-857 -374 0
857 374 0
-858 -377 0
858 377 0
-859 -380 0
859 380 0
-860 -383 0
860 383 0
-861 -386 0
861 386 0
-862 -389 0
862 389 0
-863 -392 0
863 392 0
-864 -395 0
864 395 0
-865 -398 0
865 398 0
-866 -401 0
866 401 0
-867 -404 0
867 404 0
-868 -407 0
868 407 0
-869 -410 0
869 410 0
-870 -413 0
870 413 0
-871 -416 0
871 416 0
-872 -419 0
872 419 0
-873 -422 0
873 422 0
-874 -425 0
874 425 0
-875 -428 0
875 428 0
-876 -431 0
876 431 0
-877 -434 0
877 434 0
-878 -437 0
878 437 0
-879 -440 0
879 440 0
-880 -443 0
880 443 0
-881 -446 0
881 446 0
-882 -449 0
882 449 0
-883 -452 0
883 452 0
-884 -455 0
884 455 0
-885 -458 0
885 458 0
-886 -461 0
886 461 0
-887 -464 0
887 464 0
-888 -467 0
888 467 0
-889 -470 0
889 470 0
-890 -473 0
890 473 0
-891 -476 0
891 476 0
-892 -479 0
892 479 0
-893 -482 0
893 482 0
-894 -485 0
894 485 0
-895 -488 0
895 488 0
-896 -491 0
896 491 0
-897 -494 0
897 494 0
-898 -497 0
898 497 0
-899 -500 0
899 500 0
-900 -503 0
900 503 0
-901 -506 0
901 506 0
-902 -509 0
902 509 0
-903 -512 0
903 512 0
-904 -515 0
904 515 0
-905 -518 0
905 518 0
-906 -521 0
906 521 0
-907 -524 0
907 524 0
-908 -527 0
908 527 0
-909 -530 0
909 530 0
-910 -533 0
910 533 0
-911 -536 0
911 536 0
-912 -539 0
912 539 0
-913 -541 0
913 541 0
-914 -544 0
914 544 0
-915 -547 0
915 547 0
-916 -550 0
916 550 0
-917 -553 0
917 553 0
-918 -556 0
918 556 0
-919 -559 0
919 559 0
-920 -562 0
920 562 0
-921 -565 0
921 565 0
-922 -568 0
922 568 0
-923 -571 0
923 571 0
-924 -574 0
924 574 0
-925 -577 0
925 577 0
-926 -580 0
926 580 0
-927 -583 0
927 583 0
-928 -586 0
928 586 0
-929 -589 0
929 589 0
-930 -592 0
930 592 0
-931 -595 0
931 595 0
-932 -598 0
932 598 0
-933 -601 0
933 601 0
-934 -604 0
934 604 0
-935 -607 0
935 607 0
-936 -610 0
936 610 0
-937 -613 0
937 613 0
-938 -616 0
938 616 0
-939 -618 0
939 618 0
-940 -621 0
940 621 0
-941 -624 0
941 624 0
-942 -627 0
942 627 0
-943 -630 0
943 630 0
-944 -633 0
944 633 0
-945 -635 0
945 635 0
-946 -638 0
946 638 0
-947 -641 0
947 641 0
-948 -644 0
948 644 0
-949 -647 0
949 647 0
-950 -650 0
950 650 0
-951 -653 0
951 653 0
-952 -656 0
952 656 0
-953 -659 0
953 659 0
-954 -662 0
954 662 0
-955 -665 0
955 665 0
-956 -668 0
956 668 0
-957 -671 0
957 671 0
-958 -674 0
958 674 0
-959 -677 0
959 677 0
-960 -680 0
960 680 0
-961 -683 0
961 683 0
-962 -686 0
962 686 0
-963 -689 0
963 689 0
-964 -692 0
964 692 0
-965 -694 0
965 694 0
-966 -697 0
966 697 0
698 0
